Optimal - objective value 3722.00000000
     19 x_0_20                  1                       0
     29 x_1_10                  1                     -40
     57 x_2_18                  1                    -154
     76 x_3_17                  1                      71
     87 x_4_8                   1                       0
    108 x_5_9                   1                       0
    132 x_6_13                  1                     239
    155 x_7_16                  1                       0
    162 x_8_2                   1                       0
    194 x_9_15                  1                       0
    210 x_10_11                 1                     199
    226 x_11_6                  1                       0
    243 x_12_3                  1                      46
    264 x_13_4                  1                       0
    281 x_14_1                  1                       0
    314 x_15_14                 1                       0
    332 x_16_12                 1                       0
    345 x_17_5                  1                      15
    360 x_18_0                  1                     222
    387 x_19_7                  1                       0
    419 x_20_19                 1                     188
    420 u_1                    12                       0
    421 u_2                    19                       0
    422 u_3       6.00000000000002                       0
    423 u_4                    17                       0
    424 u_5       8.00000000000002                       0
    425 u_6                    15                       0
    426 u_7                     3                       0
    427 u_8                    18                       0
    428 u_9       9.00000000000001                       0
    429 u_10                   13                       0
    430 u_11                   14                       0
    431 u_12      5.00000000000002                       0
    432 u_13                   16                       0
    433 u_14                   11                       0
    434 u_15                   10                       0
    435 u_16      3.99999999999999                       0
    436 u_17      7.00000000000002                       0
    437 u_18                   20                       0
    438 u_19                    2                       0
    439 u_20                    1                       0
